benchmarks_vrp/CMT5/no_cluster/CMT5_5.vrp
NAME: CMT5_5
TYPE: CVRP
COMMENT: 1291.29 - Cluster Nr.5
DIMENSION: 14
CAPACITY: 200
EDGE_WEIGHT_TYPE: EUC_2D
NODE_COORD_TYPE: TWOD_COORDS
NODE_COORD_SECTION: 
14 44 17
10 53 12
11 50 15
4 48 21
6 45 10
12 47 16
2 45 20
7 46 10
1 35 35
3 42 7
8 46 13
13 39 10
5 49 11
9 44 13
DEPOT_SECTION: 
1
-1
DEMAND_SECTION: 
1 0
13 10
11 19
14 9
12 25
10 6
9 28
3 5
5 18
8 8
2 11
7 23
6 18
4 20
EOF
