benchmarks_vrp/CMT5/no_cluster/CMT5_5.tour
NAME: CMT5_5 solution
TYPE: TOUR
TOUR_SECTION:
1 2 14 8 9 13 3 6 7 5 10 11 12 4 -1
-1
EOF